
===== New CPLEX run =====
Instance: /home/yorig/tuner/mpils-tests/instances/miplib/easy/lotsize.mps
Config: /scratch/yorig/mpils-results-grid-seconds-5-watchdog/easy/24proc/seed-5/4_lotsize_seed-5_20260504_011421/iterated_local_search/run_2_worker_4/ils_config_2114185981759051884.prm
========================

Selected objective sense:  MINIMIZE
Selected objective  name:  R1921
Selected RHS        name:  B
Selected bound      name:  BOUND
Wall watchdog: enabled factor=1 grace=1 limit=6 seconds
Version identifier: 22.1.2.0 | 2024-11-26 | 0edbb82fd
CPXPARAM_Threads                                 8
CPXPARAM_Parallel                                1
CPXPARAM_MIP_Cuts_Cliques                        2
CPXPARAM_MIP_Cuts_Covers                         -1
CPXPARAM_MIP_Cuts_FlowCovers                     2
CPXPARAM_MIP_Cuts_GUBCovers                      2
CPXPARAM_MIP_Limits_GomoryCand                   800
CPXPARAM_MIP_Cuts_Gomory                         2
CPXPARAM_MIP_Cuts_PathCut                        2
CPXPARAM_MIP_Cuts_MIRCut                         1
CPXPARAM_MIP_Cuts_Disjunctive                    1
CPXPARAM_Emphasis_MIP                            4
CPXPARAM_TimeLimit                               5
CPXPARAM_MIP_Limits_CutsFactor                   1
Tried aggregator 1 time.
MIP Presolve eliminated 595 rows and 0 columns.
MIP Presolve added 1190 rows and 0 columns.
MIP Presolve modified 10 coefficients.
Reduced MIP has 2515 rows, 2985 columns, and 7755 nonzeros.
Reduced MIP has 1195 binaries, 0 generals, 0 SOSs, and 0 indicators.
Presolve time = 0.00 sec. (4.53 ticks)
Probing fixed 0 vars, tightened 5487 bounds.
Probing time = 0.01 sec. (18.38 ticks)
Tried aggregator 2 times.
Detecting symmetries...
MIP Presolve modified 1206 coefficients.
Aggregator did 10 substitutions.
Reduced MIP has 2505 rows, 2975 columns, and 7735 nonzeros.
Reduced MIP has 1195 binaries, 0 generals, 0 SOSs, and 0 indicators.
Presolve time = 0.00 sec. (6.66 ticks)
Probing fixed 0 vars, tightened 2401 bounds.
Probing time = 0.00 sec. (6.41 ticks)
Clique table members: 190.
MIP emphasis: hidden feasible solutions.
MIP search method: dynamic search.
Parallel mode: deterministic, using up to 8 threads.
Root relaxation solution time = 0.01 sec. (9.71 ticks)

        Nodes                                         Cuts/
   Node  Left     Objective  IInf  Best Integer    Best Bound    ItCnt     Gap

      0     0   348385.3466   472                 348385.3466      882         
*     0+    0                       1.40386e+07   348385.3466            97.52%
*     0+    0                       1.01740e+07   348385.3466            96.58%
*     0+    0                      7973370.0000   348385.3466            95.63%
*     0+    0                      1735496.0000   348385.3466            79.93%
*     0+    0                      1703866.0000   348385.3466            79.55%
      0     0  -1.00000e+75     0  1703866.0000   348385.3466      882   79.55%
Detecting symmetries...
      0     2   348385.3466   472  1703866.0000   348693.3349      882   79.54%
Elapsed time = 1.25 sec. (1937.23 ticks, tree = 0.02 MB, solutions = 5)
    980   812   760209.4778   413  1703866.0000   352176.0220     3655   79.33%

Performing restart 1

Repeating presolve.
Tried aggregator 1 time.
MIP Presolve modified 1146 coefficients.
Reduced MIP has 2505 rows, 2975 columns, and 7735 nonzeros.
Reduced MIP has 1195 binaries, 0 generals, 0 SOSs, and 0 indicators.
Presolve time = 0.00 sec. (3.80 ticks)
Tried aggregator 1 time.
MIP Presolve modified 928 coefficients.
Reduced MIP has 2505 rows, 2975 columns, and 7735 nonzeros.
Reduced MIP has 1195 binaries, 0 generals, 0 SOSs, and 0 indicators.
Presolve time = 0.00 sec. (5.12 ticks)
Represolve time = 0.01 sec. (15.48 ticks)
*  1848+    0                      1700538.0000   352176.0220            79.29%
*  1848+    0                      1662446.0000   352176.0220            78.82%
*  1848+    0                      1645052.0000   352176.0220            78.59%
*  1848+    0                      1620791.0000   352176.0220            78.27%
*  1848+    0                      1604840.0000   352176.0220            78.06%
*  1848+    0                      1577474.0000   352176.0220            77.67%
*  1848+    0                      1576786.0000   352176.0220            77.66%
*  1848+    0                      1574416.0000   352176.0220            77.63%
   1848     0  -1.00000e+75     0  1574416.0000   352176.0220     7943   77.63%
   1848     2   348385.3466   475  1574416.0000   374210.4906     7943   76.23%
   2025   167   443843.7282   470  1574416.0000   374210.4906     8593   76.23%
   2264   330   532867.1982   466  1574416.0000   374210.4906     9129   76.23%
*  2639+  628                      1572070.0000   374210.4906            76.20%
*  2640+  669                      1571696.0000   374210.4906            76.19%
*  2640+  694                      1568838.0000   374210.4906            76.15%
*  2645+  694                      1563968.0000   374210.4906            76.07%
   2874   817   732864.6169   434  1563968.0000   374210.4906    10698   76.07%
*  3462+ 1375                      1561374.0000   374210.4906            76.03%
*  3468+ 1375                      1560093.0000   374210.4906            76.01%
   3594  1554  1037828.7634   406  1560093.0000   374210.4906    12909   76.01%
*  4178+ 1914                      1559762.0000   374210.4906            76.01%
*  4202+ 1914                      1559603.0000   374210.4906            76.01%
*  4294+ 2172                      1558071.0000   374210.4906            75.98%
*  4308+ 2147                      1555049.0000   374210.4906            75.94%
   4329  2277  1270212.6638   380  1555049.0000   374210.4906    15154   75.94%

GUB cover cuts applied:  0
Clique cuts applied:  0
Flow cuts applied:  0
Mixed integer rounding cuts applied:  0
Flow path cuts applied:  0
Gomory fractional cuts applied:  0
Disjunctive cuts applied:  0
Cone linearizations applied:  0

Root node processing (before b&c):
  Real time             =    1.25 sec. (1936.93 ticks)
Parallel b&c, 8 threads:
  Real time             =    3.75 sec. (5908.38 ticks)
  Sync time (average)   =    0.13 sec.
  Wait time (average)   =    0.00 sec.
                          ------------
Total (root+branch&cut) =    5.00 sec. (7845.30 ticks)
Gap: 75.94%
Upper bound: 1.55505e+06
Lower bound: 374210
Termination status: Normal
End of CPLEX run. Time: 5.00492 seconds

===== New CPLEX run =====
Instance: /home/yorig/tuner/mpils-tests/instances/miplib/easy/lotsize.mps
Config: /scratch/yorig/mpils-results-grid-seconds-5-watchdog/easy/24proc/seed-5/4_lotsize_seed-5_20260504_011421/iterated_local_search/run_2_worker_4/ils_config_15194256282666796302.prm
========================

Selected objective sense:  MINIMIZE
Selected objective  name:  R1921
Selected RHS        name:  B
Selected bound      name:  BOUND
Wall watchdog: enabled factor=1 grace=1 limit=6 seconds
Version identifier: 22.1.2.0 | 2024-11-26 | 0edbb82fd
CPXPARAM_Threads                                 8
CPXPARAM_Parallel                                1
CPXPARAM_MIP_Cuts_Cliques                        2
CPXPARAM_MIP_Cuts_Covers                         -1
CPXPARAM_MIP_Cuts_FlowCovers                     2
CPXPARAM_MIP_Cuts_GUBCovers                      2
CPXPARAM_MIP_Limits_GomoryCand                   800
CPXPARAM_MIP_Cuts_Gomory                         2
CPXPARAM_MIP_Cuts_PathCut                        2
CPXPARAM_MIP_Cuts_MIRCut                         1
CPXPARAM_MIP_Cuts_Disjunctive                    1
CPXPARAM_Emphasis_MIP                            4
CPXPARAM_TimeLimit                               5
Tried aggregator 1 time.
MIP Presolve eliminated 595 rows and 0 columns.
MIP Presolve added 1190 rows and 0 columns.
MIP Presolve modified 10 coefficients.
Reduced MIP has 2515 rows, 2985 columns, and 7755 nonzeros.
Reduced MIP has 1195 binaries, 0 generals, 0 SOSs, and 0 indicators.
Presolve time = 0.00 sec. (4.53 ticks)
Probing fixed 0 vars, tightened 5487 bounds.
Probing time = 0.01 sec. (18.38 ticks)
Tried aggregator 2 times.
Detecting symmetries...
MIP Presolve modified 1206 coefficients.
Aggregator did 10 substitutions.
Reduced MIP has 2505 rows, 2975 columns, and 7735 nonzeros.
Reduced MIP has 1195 binaries, 0 generals, 0 SOSs, and 0 indicators.
Presolve time = 0.00 sec. (6.66 ticks)
Probing fixed 0 vars, tightened 2401 bounds.
Probing time = 0.00 sec. (6.41 ticks)
Clique table members: 190.
MIP emphasis: hidden feasible solutions.
MIP search method: dynamic search.
Parallel mode: deterministic, using up to 8 threads.
Root relaxation solution time = 0.01 sec. (9.71 ticks)

        Nodes                                         Cuts/
   Node  Left     Objective  IInf  Best Integer    Best Bound    ItCnt     Gap

      0     0   348385.3466   472                 348385.3466      882         
      0     0   480717.5110   632                   Cuts: 726     1890         
      0     0   689177.0104   620                   Cuts: 726     2845         
*     0+    0                       1.01740e+07   689177.0104            93.23%
*     0+    0                      7973370.0000   689177.0104            91.36%
      0     0   854867.5801   756  7973370.0000     Cuts: 726     3726   89.28%
      0     0   968726.9907   720  7973370.0000     Cuts: 726     4440   87.85%
*     0+    0                      1940615.0000   968726.9907            50.08%
      0     0  1044988.3399   723  1940615.0000     Cuts: 726     5151   46.15%
Detecting symmetries...
      0     0  1108002.8212   736  1940615.0000     Cuts: 726     5903   42.90%
      0     0  1157268.4348   772  1940615.0000     Cuts: 726     6508   40.37%
      0     0  1190832.7268   769  1940615.0000     Cuts: 711     7116   38.64%
      0     0  1213453.9003   801  1940615.0000     Cuts: 571     7607   37.47%
      0     0  1228683.4361   800  1940615.0000     Cuts: 537     8039   36.69%
      0     0  1241162.1317   816  1940615.0000     Cuts: 462     8426   36.04%
      0     0  1252055.8045   810  1940615.0000     Cuts: 383     8784   35.48%
      0     0  1261637.0843   816  1940615.0000     Cuts: 352     9075   34.99%
      0     0  1268065.5270   847  1940615.0000     Cuts: 350     9368   34.66%
      0     0  1273914.8984   837  1940615.0000     Cuts: 297     9685   34.36%
      0     0  1278453.7675   825  1940615.0000     Cuts: 311     9932   34.12%
      0     0  1282516.0209   839  1940615.0000     Cuts: 266    10151   33.91%
      0     0  1284523.8453   844  1940615.0000     Cuts: 226    10345   33.81%
      0     0  1286244.2723   832  1940615.0000     Cuts: 198    10564   33.72%
      0     0  1288168.8144   839  1940615.0000     Cuts: 187    10784   33.62%
      0     0  1289530.1524   856  1940615.0000     Cuts: 244    10970   33.55%
      0     0  1291576.8889   854  1940615.0000     Cuts: 147    11137   33.44%
      0     0  1293359.9054   869  1940615.0000     Cuts: 131    11282   33.35%
      0     0  1295320.1938   859  1940615.0000     Cuts: 173    11442   33.25%
      0     0  1297251.9444   848  1940615.0000     Cuts: 169    11609   33.15%
      0     0  1298298.7534   848  1940615.0000     Cuts: 181    11728   33.10%
*     0+    0                      1936151.0000  1298298.7534            32.94%
      0     0  1299201.1225   877  1936151.0000     Cuts: 122    11830   32.90%
      0     0  1299619.4247   869  1936151.0000      Cuts: 81    11924   32.88%
      0     0  1300265.3081   850  1936151.0000      Cuts: 96    12021   32.84%
      0     0  1301589.8556   863  1936151.0000      Cuts: 84    12141   32.77%
      0     0  1302517.2435   859  1936151.0000     Cuts: 121    12233   32.73%
      0     0  1303046.8481   857  1936151.0000      Cuts: 67    12335   32.70%
      0     0  1303333.3099   860  1936151.0000      Cuts: 75    12400   32.68%
      0     0  1303504.0003   863  1936151.0000      Cuts: 58    12450   32.68%
*     0+    0                      1721289.0000  1303504.0003            24.27%
Advanced basis not built.

GUB cover cuts applied:  0
Clique cuts applied:  4
Implied bound cuts applied:  24
Flow cuts applied:  464
Mixed integer rounding cuts applied:  1031
Flow path cuts applied:  31
Multi commodity flow cuts applied:  41
Gomory fractional cuts applied:  7
Disjunctive cuts applied:  0
Cone linearizations applied:  0

Root node processing (before b&c):
  Real time             =    5.01 sec. (8246.12 ticks)
Parallel b&c, 8 threads:
  Real time             =    0.00 sec. (0.00 ticks)
  Sync time (average)   =    0.00 sec.
  Wait time (average)   =    0.00 sec.
                          ------------
Total (root+branch&cut) =    5.01 sec. (8246.12 ticks)
Gap: 24.27%
Upper bound: 1.72129e+06
Lower bound: 1.3035e+06
Termination status: Normal
End of CPLEX run. Time: 5.01674 seconds

===== New CPLEX run =====
Instance: /home/yorig/tuner/mpils-tests/instances/miplib/easy/lotsize.mps
Config: /scratch/yorig/mpils-results-grid-seconds-5-watchdog/easy/24proc/seed-5/4_lotsize_seed-5_20260504_011421/iterated_local_search/run_2_worker_4/ils_config_2264397566668741855.prm
========================

Selected objective sense:  MINIMIZE
Selected objective  name:  R1921
Selected RHS        name:  B
Selected bound      name:  BOUND
Wall watchdog: enabled factor=1 grace=1 limit=6 seconds
Version identifier: 22.1.2.0 | 2024-11-26 | 0edbb82fd
CPXPARAM_Threads                                 8
CPXPARAM_Parallel                                1
CPXPARAM_MIP_Cuts_Cliques                        2
CPXPARAM_MIP_Cuts_Covers                         -1
CPXPARAM_MIP_Cuts_FlowCovers                     2
CPXPARAM_MIP_Cuts_GUBCovers                      2
CPXPARAM_MIP_Limits_GomoryCand                   800
CPXPARAM_MIP_Cuts_Gomory                         2
CPXPARAM_MIP_Cuts_PathCut                        2
CPXPARAM_MIP_Cuts_MIRCut                         -1
CPXPARAM_MIP_Cuts_Disjunctive                    1
CPXPARAM_Emphasis_MIP                            4
CPXPARAM_TimeLimit                               5
Tried aggregator 1 time.
MIP Presolve eliminated 595 rows and 0 columns.
MIP Presolve added 1190 rows and 0 columns.
MIP Presolve modified 10 coefficients.
Reduced MIP has 2515 rows, 2985 columns, and 7755 nonzeros.
Reduced MIP has 1195 binaries, 0 generals, 0 SOSs, and 0 indicators.
Presolve time = 0.00 sec. (4.53 ticks)
Probing fixed 0 vars, tightened 5487 bounds.
Probing time = 0.01 sec. (18.38 ticks)
Tried aggregator 2 times.
Detecting symmetries...
MIP Presolve modified 1206 coefficients.
Aggregator did 10 substitutions.
Reduced MIP has 2505 rows, 2975 columns, and 7735 nonzeros.
Reduced MIP has 1195 binaries, 0 generals, 0 SOSs, and 0 indicators.
Presolve time = 0.00 sec. (6.66 ticks)
Probing fixed 0 vars, tightened 2401 bounds.
Probing time = 0.00 sec. (6.41 ticks)
Clique table members: 190.
MIP emphasis: hidden feasible solutions.
MIP search method: dynamic search.
Parallel mode: deterministic, using up to 8 threads.
Root relaxation solution time = 0.01 sec. (9.71 ticks)

        Nodes                                         Cuts/
   Node  Left     Objective  IInf  Best Integer    Best Bound    ItCnt     Gap

      0     0   348385.3466   472                 348385.3466      882         
      0     0   480717.5110   632                   Cuts: 726     1890         
      0     0   691920.6938   623                   Cuts: 726     2869         
*     0+    0                       1.01740e+07   691920.6938            93.20%
*     0+    0                      7973370.0000   691920.6938            91.32%
      0     0   856302.7139   749  7973370.0000     Cuts: 726     3738   89.26%
      0     0   970550.3420   741  7973370.0000     Cuts: 726     4431   87.83%
*     0+    0                      1940615.0000   970550.3420            49.99%
      0     0  1043815.8366   735  1940615.0000     Cuts: 726     5158   46.21%
Detecting symmetries...
      0     0  1084769.4730   750  1940615.0000     Cuts: 608     5643   44.10%
      0     0  1106486.9783   801  1940615.0000     Cuts: 424     6036   42.98%
      0     0  1125047.2204   798  1940615.0000     Cuts: 385     6427   42.03%
      0     0  1135845.0889   822  1940615.0000     Cuts: 374     6761   41.47%
      0     0  1143882.2730   858  1940615.0000     Cuts: 239     7032   41.06%
      0     0  1148304.5361   850  1940615.0000     Cuts: 278     7291   40.83%
      0     0  1153404.3018   869  1940615.0000     Cuts: 153     7541   40.57%
      0     0  1157927.4196   860  1940615.0000     Cuts: 228     7735   40.33%
      0     0  1160251.8507   874  1940615.0000     Cuts: 167     7926   40.21%
      0     0  1162907.7372   867  1940615.0000     Cuts: 128     8101   40.08%
      0     0  1165043.7687   861  1940615.0000     Cuts: 156     8253   39.97%
      0     0  1167769.1891   879  1940615.0000      Cuts: 87     8390   39.82%
      0     0  1168830.2199   882  1940615.0000      Cuts: 85     8523   39.77%
      0     0  1170121.4481   867  1940615.0000      Cuts: 97     8672   39.70%
      0     0  1172078.4974   874  1940615.0000      Cuts: 76     8791   39.60%
      0     0  1172793.0030   864  1940615.0000      Cuts: 56     8925   39.57%
      0     0  1173811.4564   864  1940615.0000      Cuts: 65     9048   39.51%
      0     0  1174853.2195   881  1940615.0000      Cuts: 96     9208   39.46%
      0     0  1175633.3976   886  1940615.0000     Cuts: 102     9354   39.42%
      0     0  1176579.0210   886  1940615.0000      Cuts: 72     9500   39.37%
      0     0  1177317.8989   895  1940615.0000      Cuts: 96     9617   39.33%
      0     0  1177867.3322   886  1940615.0000      Cuts: 62     9713   39.30%
      0     0  1178080.1332   890  1940615.0000      Cuts: 50     9778   39.29%
      0     0  1178374.8830   899  1940615.0000      Cuts: 38     9878   39.28%
*     0+    0                      1936103.0000  1178374.8830            39.14%
Advanced basis not built.

GUB cover cuts applied:  0
Clique cuts applied:  4
Implied bound cuts applied:  22
Flow cuts applied:  847
Mixed integer rounding cuts applied:  537
Flow path cuts applied:  53
Multi commodity flow cuts applied:  80
Gomory fractional cuts applied:  9
Disjunctive cuts applied:  0
Cone linearizations applied:  0

Root node processing (before b&c):
  Real time             =    5.01 sec. (8482.48 ticks)
Parallel b&c, 8 threads:
  Real time             =    0.00 sec. (0.00 ticks)
  Sync time (average)   =    0.00 sec.
  Wait time (average)   =    0.00 sec.
                          ------------
Total (root+branch&cut) =    5.01 sec. (8482.48 ticks)
Gap: 39.14%
Upper bound: 1.9361e+06
Lower bound: 1.17837e+06
Termination status: Normal
End of CPLEX run. Time: 5.01765 seconds

===== New CPLEX run =====
Instance: /home/yorig/tuner/mpils-tests/instances/miplib/easy/lotsize.mps
Config: /scratch/yorig/mpils-results-grid-seconds-5-watchdog/easy/24proc/seed-5/4_lotsize_seed-5_20260504_011421/iterated_local_search/run_2_worker_4/ils_config_17222130805324017987.prm
========================

Selected objective sense:  MINIMIZE
Selected objective  name:  R1921
Selected RHS        name:  B
Selected bound      name:  BOUND
Wall watchdog: enabled factor=1 grace=1 limit=6 seconds
Version identifier: 22.1.2.0 | 2024-11-26 | 0edbb82fd
CPXPARAM_Threads                                 8
CPXPARAM_Parallel                                1
CPXPARAM_MIP_Cuts_Cliques                        2
CPXPARAM_MIP_Cuts_Covers                         -1
CPXPARAM_MIP_Cuts_FlowCovers                     2
CPXPARAM_MIP_Cuts_GUBCovers                      2
CPXPARAM_MIP_Limits_GomoryCand                   800
CPXPARAM_MIP_Cuts_Gomory                         2
CPXPARAM_MIP_Cuts_PathCut                        2
CPXPARAM_MIP_Cuts_MIRCut                         1
CPXPARAM_MIP_Cuts_Disjunctive                    -1
CPXPARAM_Emphasis_MIP                            4
CPXPARAM_TimeLimit                               5
Tried aggregator 1 time.
MIP Presolve eliminated 595 rows and 0 columns.
MIP Presolve added 1190 rows and 0 columns.
MIP Presolve modified 10 coefficients.
Reduced MIP has 2515 rows, 2985 columns, and 7755 nonzeros.
Reduced MIP has 1195 binaries, 0 generals, 0 SOSs, and 0 indicators.
Presolve time = 0.00 sec. (4.53 ticks)
Probing fixed 0 vars, tightened 5487 bounds.
Probing time = 0.01 sec. (18.38 ticks)
Tried aggregator 2 times.
Detecting symmetries...
MIP Presolve modified 1206 coefficients.
Aggregator did 10 substitutions.
Reduced MIP has 2505 rows, 2975 columns, and 7735 nonzeros.
Reduced MIP has 1195 binaries, 0 generals, 0 SOSs, and 0 indicators.
Presolve time = 0.00 sec. (6.66 ticks)
Probing fixed 0 vars, tightened 2401 bounds.
Probing time = 0.00 sec. (6.41 ticks)
Clique table members: 190.
MIP emphasis: hidden feasible solutions.
MIP search method: dynamic search.
Parallel mode: deterministic, using up to 8 threads.
Root relaxation solution time = 0.01 sec. (9.71 ticks)

        Nodes                                         Cuts/
   Node  Left     Objective  IInf  Best Integer    Best Bound    ItCnt     Gap

      0     0   348385.3466   472                 348385.3466      882         
      0     0   480717.5110   632                   Cuts: 726     1890         
      0     0   689177.0104   620                   Cuts: 726     2845         
*     0+    0                       1.01740e+07   689177.0104            93.23%
*     0+    0                      7973370.0000   689177.0104            91.36%
      0     0   854867.5801   756  7973370.0000     Cuts: 726     3726   89.28%
      0     0   968726.9907   720  7973370.0000     Cuts: 726     4440   87.85%
*     0+    0                      1940615.0000   968726.9907            50.08%
      0     0  1044988.3399   723  1940615.0000     Cuts: 726     5151   46.15%
Detecting symmetries...
      0     0  1108002.8212   736  1940615.0000     Cuts: 726     5903   42.90%
      0     0  1157268.4348   772  1940615.0000     Cuts: 726     6508   40.37%
      0     0  1190832.7268   769  1940615.0000     Cuts: 711     7116   38.64%
      0     0  1213453.9003   801  1940615.0000     Cuts: 571     7607   37.47%
      0     0  1228683.4361   800  1940615.0000     Cuts: 537     8039   36.69%
      0     0  1241162.1317   816  1940615.0000     Cuts: 462     8426   36.04%
      0     0  1252055.8045   810  1940615.0000     Cuts: 383     8784   35.48%
      0     0  1261637.0843   816  1940615.0000     Cuts: 352     9075   34.99%
      0     0  1268065.5270   847  1940615.0000     Cuts: 350     9368   34.66%
      0     0  1273914.8984   837  1940615.0000     Cuts: 297     9685   34.36%
      0     0  1278453.7675   825  1940615.0000     Cuts: 311     9932   34.12%
      0     0  1282516.0209   839  1940615.0000     Cuts: 266    10151   33.91%
      0     0  1284523.8453   844  1940615.0000     Cuts: 226    10345   33.81%
      0     0  1286244.2723   832  1940615.0000     Cuts: 198    10564   33.72%
      0     0  1288168.8144   839  1940615.0000     Cuts: 187    10784   33.62%
      0     0  1289530.1524   856  1940615.0000     Cuts: 244    10970   33.55%
      0     0  1291576.8889   854  1940615.0000     Cuts: 147    11137   33.44%
      0     0  1293359.9054   869  1940615.0000     Cuts: 131    11282   33.35%
      0     0  1295320.1938   859  1940615.0000     Cuts: 173    11442   33.25%
      0     0  1297251.9444   848  1940615.0000     Cuts: 169    11609   33.15%
      0     0  1298298.7534   848  1940615.0000     Cuts: 181    11728   33.10%
*     0+    0                      1936151.0000  1298298.7534            32.94%
      0     0  1299201.1225   877  1936151.0000     Cuts: 122    11830   32.90%
      0     0  1299619.4247   869  1936151.0000      Cuts: 81    11924   32.88%
      0     0  1300265.3081   850  1936151.0000      Cuts: 96    12021   32.84%
      0     0  1301589.8556   863  1936151.0000      Cuts: 84    12141   32.77%
      0     0  1302517.2435   859  1936151.0000     Cuts: 121    12233   32.73%
      0     0  1303046.8481   857  1936151.0000      Cuts: 67    12335   32.70%
      0     0  1303333.3099   860  1936151.0000      Cuts: 75    12400   32.68%
      0     0  1303504.0003   863  1936151.0000      Cuts: 58    12450   32.68%
*     0+    0                      1676420.0000  1303504.0003            22.24%
Advanced basis not built.

GUB cover cuts applied:  0
Clique cuts applied:  4
Implied bound cuts applied:  24
Flow cuts applied:  464
Mixed integer rounding cuts applied:  1031
Flow path cuts applied:  31
Multi commodity flow cuts applied:  41
Gomory fractional cuts applied:  7

Root node processing (before b&c):
  Real time             =    5.01 sec. (8247.08 ticks)
Parallel b&c, 8 threads:
  Real time             =    0.00 sec. (0.00 ticks)
  Sync time (average)   =    0.00 sec.
  Wait time (average)   =    0.00 sec.
                          ------------
Total (root+branch&cut) =    5.01 sec. (8247.08 ticks)
Gap: 22.24%
Upper bound: 1.67642e+06
Lower bound: 1.3035e+06
Termination status: Normal
End of CPLEX run. Time: 5.01431 seconds

===== New CPLEX run =====
Instance: /home/yorig/tuner/mpils-tests/instances/miplib/easy/lotsize.mps
Config: /scratch/yorig/mpils-results-grid-seconds-5-watchdog/easy/24proc/seed-5/4_lotsize_seed-5_20260504_011421/iterated_local_search/run_2_worker_4/ils_config_841228895311736471.prm
========================

Selected objective sense:  MINIMIZE
Selected objective  name:  R1921
Selected RHS        name:  B
Selected bound      name:  BOUND
Wall watchdog: enabled factor=1 grace=1 limit=6 seconds
Version identifier: 22.1.2.0 | 2024-11-26 | 0edbb82fd
CPXPARAM_Threads                                 8
CPXPARAM_Parallel                                1
CPXPARAM_MIP_Cuts_Cliques                        2
CPXPARAM_MIP_Cuts_Covers                         -1
CPXPARAM_MIP_Cuts_FlowCovers                     2
CPXPARAM_MIP_Cuts_GUBCovers                      -1
CPXPARAM_MIP_Limits_GomoryCand                   800
CPXPARAM_MIP_Cuts_Gomory                         2
CPXPARAM_MIP_Cuts_PathCut                        2
CPXPARAM_MIP_Cuts_MIRCut                         1
CPXPARAM_MIP_Cuts_Disjunctive                    -1
CPXPARAM_Emphasis_MIP                            4
CPXPARAM_TimeLimit                               5
Tried aggregator 1 time.
MIP Presolve eliminated 595 rows and 0 columns.
MIP Presolve added 1190 rows and 0 columns.
MIP Presolve modified 10 coefficients.
Reduced MIP has 2515 rows, 2985 columns, and 7755 nonzeros.
Reduced MIP has 1195 binaries, 0 generals, 0 SOSs, and 0 indicators.
Presolve time = 0.00 sec. (4.53 ticks)
Probing fixed 0 vars, tightened 5487 bounds.
Probing time = 0.01 sec. (18.38 ticks)
Tried aggregator 2 times.
Detecting symmetries...
MIP Presolve modified 1206 coefficients.
Aggregator did 10 substitutions.
Reduced MIP has 2505 rows, 2975 columns, and 7735 nonzeros.
Reduced MIP has 1195 binaries, 0 generals, 0 SOSs, and 0 indicators.
Presolve time = 0.01 sec. (6.66 ticks)
Probing fixed 0 vars, tightened 2401 bounds.
Probing time = 0.00 sec. (6.41 ticks)
Clique table members: 190.
MIP emphasis: hidden feasible solutions.
MIP search method: dynamic search.
Parallel mode: deterministic, using up to 8 threads.
Root relaxation solution time = 0.02 sec. (9.71 ticks)

        Nodes                                         Cuts/
   Node  Left     Objective  IInf  Best Integer    Best Bound    ItCnt     Gap

      0     0   348385.3466   472                 348385.3466      882         
      0     0   480717.5110   632                   Cuts: 726     1890         
      0     0   689177.0104   620                   Cuts: 726     2845         
*     0+    0                       1.01740e+07   689177.0104            93.23%
*     0+    0                      7973370.0000   689177.0104            91.36%
      0     0   854867.5801   756  7973370.0000     Cuts: 726     3726   89.28%
      0     0   968726.9907   720  7973370.0000     Cuts: 726     4440   87.85%
*     0+    0                      1940615.0000   968726.9907            50.08%
      0     0  1044988.3399   723  1940615.0000     Cuts: 726     5151   46.15%
Detecting symmetries...
      0     0  1108002.8212   736  1940615.0000     Cuts: 726     5903   42.90%
      0     0  1157268.4348   772  1940615.0000     Cuts: 726     6508   40.37%
      0     0  1190832.7268   769  1940615.0000     Cuts: 711     7116   38.64%
      0     0  1213453.9003   801  1940615.0000     Cuts: 571     7607   37.47%
      0     0  1228683.4361   800  1940615.0000     Cuts: 537     8039   36.69%
      0     0  1241162.1317   816  1940615.0000     Cuts: 462     8426   36.04%
      0     0  1252055.8045   810  1940615.0000     Cuts: 383     8784   35.48%
      0     0  1261637.0843   816  1940615.0000     Cuts: 352     9075   34.99%
      0     0  1268065.5270   847  1940615.0000     Cuts: 350     9368   34.66%
      0     0  1273914.8984   837  1940615.0000     Cuts: 297     9685   34.36%
      0     0  1278453.7675   825  1940615.0000     Cuts: 311     9932   34.12%
      0     0  1282516.0209   839  1940615.0000     Cuts: 266    10151   33.91%
      0     0  1284523.8453   844  1940615.0000     Cuts: 226    10345   33.81%
      0     0  1286244.2723   832  1940615.0000     Cuts: 198    10564   33.72%
      0     0  1288168.8144   839  1940615.0000     Cuts: 187    10784   33.62%
      0     0  1289530.1524   856  1940615.0000     Cuts: 244    10970   33.55%
      0     0  1291576.8889   854  1940615.0000     Cuts: 147    11137   33.44%
      0     0  1293359.9054   869  1940615.0000     Cuts: 131    11282   33.35%
      0     0  1295320.1938   859  1940615.0000     Cuts: 173    11442   33.25%
      0     0  1297251.9444   848  1940615.0000     Cuts: 169    11609   33.15%
      0     0  1298298.7534   848  1940615.0000     Cuts: 181    11728   33.10%
*     0+    0                      1936151.0000  1298298.7534            32.94%
      0     0  1299201.1225   877  1936151.0000     Cuts: 122    11830   32.90%
      0     0  1299619.4247   869  1936151.0000      Cuts: 81    11924   32.88%
      0     0  1300265.3081   850  1936151.0000      Cuts: 96    12021   32.84%
      0     0  1301589.8556   863  1936151.0000      Cuts: 84    12141   32.77%
      0     0  1302517.2435   859  1936151.0000     Cuts: 121    12233   32.73%
      0     0  1303046.8481   857  1936151.0000      Cuts: 67    12335   32.70%
      0     0  1303333.3099   860  1936151.0000      Cuts: 75    12400   32.68%
      0     0  1303504.0003   863  1936151.0000      Cuts: 58    12450   32.68%
*     0+    0                      1731332.0000  1303504.0003            24.71%
Advanced basis not built.

Clique cuts applied:  4
Implied bound cuts applied:  24
Flow cuts applied:  464
Mixed integer rounding cuts applied:  1031
Flow path cuts applied:  31
Multi commodity flow cuts applied:  41
Gomory fractional cuts applied:  7

Root node processing (before b&c):
  Real time             =    5.01 sec. (8269.44 ticks)
Parallel b&c, 8 threads:
  Real time             =    0.00 sec. (0.00 ticks)
  Sync time (average)   =    0.00 sec.
  Wait time (average)   =    0.00 sec.
                          ------------
Total (root+branch&cut) =    5.01 sec. (8269.44 ticks)
Gap: 24.71%
Upper bound: 1.73133e+06
Lower bound: 1.3035e+06
Termination status: Normal
End of CPLEX run. Time: 5.01549 seconds

===== New CPLEX run =====
Instance: /home/yorig/tuner/mpils-tests/instances/miplib/easy/lotsize.mps
Config: /scratch/yorig/mpils-results-grid-seconds-5-watchdog/easy/24proc/seed-5/4_lotsize_seed-5_20260504_011421/iterated_local_search/run_2_worker_4/ils_config_16176670479291805825.prm
========================

Selected objective sense:  MINIMIZE
Selected objective  name:  R1921
Selected RHS        name:  B
Selected bound      name:  BOUND
Wall watchdog: enabled factor=1 grace=1 limit=6 seconds
Version identifier: 22.1.2.0 | 2024-11-26 | 0edbb82fd
CPXPARAM_Threads                                 8
CPXPARAM_Parallel                                1
CPXPARAM_MIP_Cuts_Cliques                        2
CPXPARAM_MIP_Cuts_Covers                         -1
CPXPARAM_MIP_Cuts_FlowCovers                     2
CPXPARAM_MIP_Cuts_GUBCovers                      2
CPXPARAM_MIP_Limits_GomoryCand                   800
CPXPARAM_MIP_Cuts_Gomory                         -1
CPXPARAM_MIP_Cuts_PathCut                        2
CPXPARAM_MIP_Cuts_MIRCut                         1
CPXPARAM_MIP_Cuts_Disjunctive                    -1
CPXPARAM_Emphasis_MIP                            4
CPXPARAM_TimeLimit                               5
Tried aggregator 1 time.
MIP Presolve eliminated 595 rows and 0 columns.
MIP Presolve added 1190 rows and 0 columns.
MIP Presolve modified 10 coefficients.
Reduced MIP has 2515 rows, 2985 columns, and 7755 nonzeros.
Reduced MIP has 1195 binaries, 0 generals, 0 SOSs, and 0 indicators.
Presolve time = 0.00 sec. (4.53 ticks)
Probing fixed 0 vars, tightened 5487 bounds.
Probing time = 0.01 sec. (18.38 ticks)
Tried aggregator 2 times.
Detecting symmetries...
MIP Presolve modified 1206 coefficients.
Aggregator did 10 substitutions.
Reduced MIP has 2505 rows, 2975 columns, and 7735 nonzeros.
Reduced MIP has 1195 binaries, 0 generals, 0 SOSs, and 0 indicators.
Presolve time = 0.00 sec. (6.66 ticks)
Probing fixed 0 vars, tightened 2401 bounds.
Probing time = 0.00 sec. (6.41 ticks)
Clique table members: 190.
MIP emphasis: hidden feasible solutions.
MIP search method: dynamic search.
Parallel mode: deterministic, using up to 8 threads.
Root relaxation solution time = 0.01 sec. (9.71 ticks)

        Nodes                                         Cuts/
   Node  Left     Objective  IInf  Best Integer    Best Bound    ItCnt     Gap

      0     0   348385.3466   472                 348385.3466      882         
      0     0   583577.4049   435                   Cuts: 726     1819         
      0     0   815699.2665   697                   Cuts: 726     2646         
*     0+    0                       1.01740e+07   815699.2665            91.98%
*     0+    0                      7973370.0000   815699.2665            89.77%
      0     0   946623.0639   696  7973370.0000     Cuts: 726     3336   88.13%
      0     0  1037409.0755   734  7973370.0000     Cuts: 726     4008   86.99%
      0     0  1097239.5021   771  7973370.0000     Cuts: 726     4638   86.24%
Detecting symmetries...
*     0+    0                      1940615.0000  1097239.5021            43.46%
      0     0  1165419.4052   724  1940615.0000     Cuts: 726     5379   39.95%
      0     0  1195148.7492   740  1940615.0000     Cuts: 671     5907   38.41%
      0     0  1216369.6245   767  1940615.0000     Cuts: 668     6444   37.32%
      0     0  1236661.7502   787  1940615.0000     Cuts: 538     6936   36.27%
      0     0  1250363.2509   811  1940615.0000     Cuts: 398     7358   35.57%
      0     0  1264334.6986   782  1940615.0000     Cuts: 418     7774   34.85%
      0     0  1272849.9424   824  1940615.0000     Cuts: 448     8137   34.41%
      0     0  1278770.3740   806  1940615.0000     Cuts: 361     8449   34.10%
      0     0  1285316.5037   819  1940615.0000     Cuts: 283     8757   33.77%
      0     0  1289377.4775   807  1940615.0000     Cuts: 236     9001   33.56%
      0     0  1292651.1936   797  1940615.0000     Cuts: 300     9252   33.39%
      0     0  1296365.9795   822  1940615.0000     Cuts: 224     9471   33.20%
      0     0  1300512.3066   828  1940615.0000     Cuts: 194     9680   32.98%
      0     0  1303078.1186   822  1940615.0000     Cuts: 239     9881   32.85%
      0     0  1305739.3745   834  1940615.0000     Cuts: 190    10048   32.72%
      0     0  1307836.7010   841  1940615.0000     Cuts: 170    10220   32.61%
      0     0  1310861.3051   852  1940615.0000     Cuts: 130    10361   32.45%
      0     0  1312463.1552   867  1940615.0000     Cuts: 159    10541   32.37%
      0     0  1314849.6505   857  1940615.0000      Cuts: 97    10697   32.25%
      0     0  1316106.2269   852  1940615.0000     Cuts: 145    10843   32.18%
      0     0  1317053.1166   839  1940615.0000      Cuts: 56    10929   32.13%
      0     0  1317922.7185   835  1940615.0000      Cuts: 58    11045   32.09%
      0     0  1318235.6659   835  1940615.0000      Cuts: 89    11116   32.07%
      0     0  1318565.2510   849  1940615.0000      Cuts: 80    11195   32.05%
*     0+    0                      1924541.0000  1318565.2510            31.49%
Advanced basis not built.

GUB cover cuts applied:  0
Clique cuts applied:  6
Implied bound cuts applied:  19
Flow cuts applied:  429
Mixed integer rounding cuts applied:  1047
Flow path cuts applied:  40
Multi commodity flow cuts applied:  34

Root node processing (before b&c):
  Real time             =    5.01 sec. (8190.82 ticks)
Parallel b&c, 8 threads:
  Real time             =    0.00 sec. (0.00 ticks)
  Sync time (average)   =    0.00 sec.
  Wait time (average)   =    0.00 sec.
                          ------------
Total (root+branch&cut) =    5.01 sec. (8190.82 ticks)
Gap: 31.49%
Upper bound: 1.92454e+06
Lower bound: 1.31857e+06
Termination status: Normal
End of CPLEX run. Time: 5.01294 seconds
